param n:=12;
param VCOST:=
1 250
2 300
3 700
4 500
5 450
6 90
7 200
8 400
9 200
10 250
11 350
12 150;

param D:=
1 1000
2 2000
3 5000
4 4000 
5 3000
6 500
7 1000
8 8000
9 4000
10 2000
11 6000
12 3000;

param h:=30;
